<number of tasks>
20


<number of equipment>
5


<cycle time>
1000


<investment costs>
1,20083
2,8655
3,27234
4,16981
5,17802


<task times>
1,265,-1,125,-1,294
2,206,-1,125,-1,208
3,228,-1,201,-1,273
4,205,341,-1,258,-1
5,201,312,-1,281,-1
6,172,-1,35,-1,187
7,391,-1,-1,425,-1
8,232,-1,-1,282,-1
9,215,-1,83,-1,245
10,216,-1,-1,249,-1
11,200,-1,82,-1,221
12,235,393,-1,317,-1
13,217,-1,166,-1,262
14,155,-1,81,-1,247
15,150,-1,128,-1,228
16,239,372,-1,281,-1
17,228,425,-1,287,-1
18,140,-1,73,-1,120
19,332,443,-1,288,-1
20,184,194,-1,155,-1


<precedence relations>
1,13
2,3
2,4
3,7
4,5
4,6
4,8
5,10
6,10
6,12
7,9
7,11
7,14
8,12
9,13
10,13
11,13
12,14
12,15
13,16
13,17
13,18
13,19
14,20


<task types>
1,3
2,3
3,3
4,2
5,2
6,3
7,1
8,1
9,3
10,1
11,3
12,2
13,3
14,3
15,3
16,2
17,2
18,3
19,2
20,2


<line depot>
1,5
2,0
3,0
4,0
5,0


<processing costs>
1,21600
2,7200
3,7200
4,14400
5,7200


<saving costs>
1,2008
2,865
3,2723
4,1698
5,1780


<end>
